50 1526
654 774 792 684 489 111 930 243 246 225 813 393 354 264 477 234 366 849 753 753 114 606 51 375 648 375 711 72 792 576 981 816 786 231 714 357 561 861 789 387 108 750 561 219 585 315 156 915 363 570 
652 773 790 682 488 111 928 242 245 225 813 393 353 264 477 234 364 848 753 752 112 605 50 374 647 373 710 70 792 575 979 814 786 229 714 355 559 861 789 386 106 748 560 217 585 313 155 915 363 568 
